(set-logic HORN)
(set-info :source |
  Benchmark: test_safe_2019/fpice/inductive.ml
  Generated by MoCHi
|)
(set-info :status unknown)
(declare-fun |fail_18[20:0]| ( Int) Bool)
(declare-fun |loop[12:2][15:0]| ( Int  Int  Int) Bool)
(declare-fun |loop[12:1]| ( Int  Int) Bool)
(assert (not (exists ((x0 Int)) (|fail_18[20:0]| x0))))
(assert (forall ((x0 Int)(x2 Int)(x1 Int)) (=> (and (|loop[12:2][15:0]| 3 x1 x2) (<= x2 2)) (|fail_18[20:0]| x0))))
(assert (forall ((x1 Int)(x2 Int)(x0 Int)) (=> (and (|loop[12:1]| x1 x2) (and (<= (+ 1 x2) 0) (= x0 x1))) (|loop[12:2][15:0]| x1 x2 x0))))
(assert (forall ((x0 Int)(x1 Int)) (=> (= x0 3) (|loop[12:1]| x0 x1))))
(check-sat)
(get-model)
(exit)
